language Essence 1.3

letting class be
        function(1 --> 1, 2 --> 1, 3 --> 1, 4 --> 2, 5 --> 2, 6 --> 2, 7 --> 2, 8 --> 2, 9 --> 2, 10 --> 1, 11 --> 2,
                 12 --> 2, 13 --> 2, 14 --> 1, 15 --> 1, 16 --> 1, 17 --> 2, 18 --> 2, 19 --> 2, 20 --> 1, 21 --> 1)
letting deck_length be 80
letting deck_width be 81
letting length be
        function(1 --> 1, 2 --> 1, 3 --> 37, 4 --> 1, 5 --> 1, 6 --> 1, 7 --> 1, 8 --> 62, 9 --> 1, 10 --> 1, 11 --> 1,
                 12 --> 1, 13 --> 1, 14 --> 1, 15 --> 3, 16 --> 1, 17 --> 1, 18 --> 51, 19 --> 1, 20 --> 1, 21 --> 1)
letting n_classes be 2
letting n_containers be 21
letting separation be function()
letting width be
        function(1 --> 1, 2 --> 1, 3 --> 2, 4 --> 27, 5 --> 1, 6 --> 1, 7 --> 1, 8 --> 1, 9 --> 1, 10 --> 1, 11 --> 1,
                 12 --> 21, 13 --> 1, 14 --> 1, 15 --> 1, 16 --> 1, 17 --> 1, 18 --> 10, 19 --> 1, 20 --> 1, 21 --> 1)
